<number of tasks>
250

<cycle time>
1000

<order strength>
0.895


<task times>
1 538
2 455
3 444
4 336
5 533
6 525
7 568
8 187
9 363
10 446
11 423
12 409
13 595
14 416
15 373
16 429
17 460
18 590
19 314
20 803
21 572
22 404
23 375
24 667
25 659
26 412
27 589
28 712
29 442
30 514
31 331
32 528
33 619
34 569
35 509
36 545
37 470
38 630
39 244
40 451
41 536
42 392
43 399
44 366
45 714
46 543
47 549
48 644
49 373
50 524
51 514
52 493
53 601
54 641
55 399
56 508
57 430
58 562
59 476
60 552
61 527
62 612
63 436
64 716
65 325
66 375
67 371
68 605
69 372
70 264
71 769
72 389
73 558
74 472
75 554
76 669
77 307
78 525
79 293
80 386
81 596
82 397
83 733
84 569
85 574
86 476
87 548
88 518
89 509
90 403
91 401
92 485
93 490
94 443
95 626
96 847
97 372
98 512
99 527
100 427
101 517
102 320
103 406
104 661
105 547
106 450
107 671
108 343
109 590
110 401
111 466
112 871
113 316
114 650
115 338
116 451
117 430
118 191
119 348
120 699
121 377
122 334
123 565
124 369
125 663
126 657
127 728
128 473
129 732
130 570
131 529
132 482
133 741
134 601
135 506
136 470
137 455
138 395
139 483
140 706
141 541
142 364
143 348
144 514
145 384
146 583
147 528
148 469
149 425
150 485
151 497
152 450
153 481
154 356
155 715
156 373
157 651
158 760
159 466
160 408
161 502
162 467
163 524
164 628
165 280
166 428
167 440
168 540
169 458
170 575
171 453
172 548
173 262
174 551
175 329
176 550
177 462
178 587
179 625
180 464
181 443
182 233
183 269
184 364
185 457
186 287
187 637
188 542
189 370
190 371
191 522
192 406
193 511
194 519
195 650
196 689
197 175
198 418
199 337
200 571
201 506
202 426
203 508
204 636
205 604
206 659
207 348
208 719
209 295
210 599
211 487
212 511
213 426
214 559
215 446
216 299
217 446
218 569
219 443
220 392
221 720
222 347
223 485
224 401
225 460
226 346
227 494
228 383
229 636
230 464
231 733
232 564
233 233
234 611
235 301
236 795
237 507
238 442
239 472
240 720
241 575
242 672
243 428
244 518
245 312
246 519
247 726
248 678
249 666
250 409

<precedence relations>
1,4
1,5
2,4
2,5
3,4
3,5
4,6
4,7
4,8
4,9
4,10
4,11
4,12
4,13
5,6
5,7
5,8
5,9
5,10
5,11
5,12
5,13
6,14
6,15
6,16
6,17
7,14
7,15
7,16
7,17
8,14
8,15
8,16
8,17
9,14
9,15
9,16
9,17
10,14
10,15
10,16
10,17
11,14
11,15
11,16
11,17
12,14
12,15
12,16
12,17
13,14
13,15
13,16
13,17
14,18
14,19
15,18
15,19
16,18
16,19
17,18
17,19
18,20
18,21
19,20
19,21
20,22
20,23
20,24
20,25
21,22
21,23
21,24
21,25
22,26
22,27
22,28
22,29
23,26
23,27
23,28
23,29
24,26
24,27
24,28
24,29
25,26
25,27
25,28
25,29
26,30
26,31
26,32
26,33
26,34
27,30
27,31
27,32
27,33
27,34
28,30
28,31
28,32
28,33
28,34
29,30
29,31
29,32
29,33
29,34
30,35
30,36
30,37
30,38
30,39
31,35
31,36
31,37
31,38
31,39
32,35
33,35
34,37
34,38
34,39
35,40
35,41
35,42
35,43
35,44
36,40
36,41
36,42
36,43
36,44
37,40
37,41
37,42
37,43
37,44
38,40
38,41
38,42
38,43
39,40
39,41
39,42
39,44
40,51
40,53
41,46
41,50
41,58
42,45
42,46
42,49
43,45
43,46
43,48
43,52
43,53
44,45
44,46
44,47
44,48
44,49
44,50
44,52
45,56
45,57
45,58
46,54
46,55
46,56
46,57
47,54
47,55
47,56
47,57
47,58
48,54
48,56
49,87
50,54
50,55
50,62
51,54
51,55
51,56
51,57
51,58
52,54
52,55
52,56
53,54
53,55
54,91
54,96
55,59
55,60
55,63
56,59
56,60
56,61
56,62
56,63
57,59
57,60
57,61
57,62
57,63
58,59
58,60
58,61
58,62
58,63
59,64
59,65
60,64
60,65
60,66
61,64
61,65
61,66
62,64
63,64
63,65
63,66
64,67
64,68
64,70
65,69
66,67
66,68
66,69
66,70
67,73
67,99
68,71
68,72
68,73
68,74
69,111
70,72
70,73
70,74
71,77
72,110
72,115
73,76
73,78
73,79
73,100
74,75
74,76
74,77
74,78
74,79
75,80
75,81
75,82
75,83
76,80
77,80
77,81
77,82
78,121
78,137
79,80
80,97
80,101
81,84
81,85
81,86
82,86
82,87
82,90
83,85
83,86
83,87
84,88
84,89
84,90
84,91
85,88
85,90
85,91
86,88
86,89
87,88
88,96
89,92
89,93
89,94
89,95
90,92
90,93
90,94
90,95
90,96
91,92
91,93
91,94
91,95
92,117
93,98
93,101
94,97
94,99
94,100
95,99
95,100
95,101
96,97
96,100
96,101
97,102
97,103
97,104
98,102
98,103
98,104
99,102
99,103
99,104
100,102
101,102
101,103
101,104
102,105
102,106
102,107
102,111
102,112
103,105
103,106
103,107
103,108
103,109
103,110
103,111
104,105
104,109
104,110
104,115
105,113
105,116
106,113
106,114
106,115
106,116
107,158
108,115
109,113
110,113
110,114
110,116
111,113
111,114
111,116
112,113
112,116
113,117
113,118
113,119
114,117
114,118
114,119
115,117
115,118
115,119
116,117
116,118
116,119
117,120
118,120
118,121
119,122
120,123
120,124
120,125
120,126
121,123
122,123
122,124
122,138
122,140
123,129
124,130
124,181
125,127
125,128
125,137
126,127
126,128
126,130
126,131
127,132
127,133
128,135
129,144
129,153
129,156
129,157
130,169
130,180
131,132
131,134
131,136
132,139
132,140
132,150
132,153
133,151
133,159
133,160
133,161
134,137
134,138
134,139
135,138
135,149
136,223
137,145
138,141
138,142
138,143
138,145
139,141
140,141
140,143
140,144
140,156
141,147
141,154
141,160
142,146
142,148
143,146
143,157
144,146
144,149
145,146
145,147
145,156
146,152
147,151
147,167
147,180
147,182
147,188
148,150
148,151
148,153
149,168
149,170
149,171
150,154
150,155
150,156
150,157
151,157
151,215
152,154
152,155
152,158
153,154
153,160
154,159
154,161
155,160
155,181
156,160
156,166
156,171
157,204
158,173
159,162
159,163
159,164
160,180
160,191
161,162
161,163
161,164
161,165
161,166
162,167
163,167
163,169
165,168
166,170
166,172
166,174
167,171
167,172
167,173
168,178
168,217
169,171
169,174
170,173
170,175
171,185
171,192
171,195
172,176
173,176
173,192
174,176
174,177
175,177
175,178
175,179
175,183
176,183
176,184
176,185
177,182
177,186
177,187
177,203
178,180
178,239
179,180
179,181
179,193
179,229
180,227
182,197
182,202
183,190
183,210
184,213
184,230
185,189
185,191
186,188
187,250
188,192
188,193
188,202
189,206
190,195
190,220
191,193
191,194
191,196
192,226
192,232
192,235
193,213
194,197
195,229
196,198
196,199
197,201
197,208
197,209
198,200
198,201
198,202
199,200
199,201
200,203
200,204
200,206
201,205
201,223
202,231
203,207
203,209
204,210
204,211
205,212
206,207
206,208
206,209
207,223
208,212
208,222
209,214
209,215
210,212
210,213
211,237
211,243
212,219
213,216
214,218
215,217
215,224
216,222
216,223
217,225
217,234
218,232
219,220
219,221
219,224
220,228
220,230
221,228
221,229
222,226
222,228
222,237
223,231
223,232
223,239
224,227
226,247
227,231
228,236
229,232
229,233
229,241
229,242
230,232
231,234
231,235
231,236
231,238
233,237
233,239
234,244
234,245
235,240
235,241
235,242
236,243
238,240
241,250
242,246
242,248
243,249
243,250
244,247

<end>
